<?xml version = "1.0" encoding="UTF-8" standalone="yes"?>
<CPLEXSolution version="1.2">
 <header
   problemName="IloCplex"
   solutionName="p0"
   solutionIndex="-1"
   objectiveValue="0"
   solutionTypeValue="3"
   solutionTypeString="primal"
   solutionStatusValue="127"
   solutionStatusString="integer feasible solution"
   solutionMethodString="mip"
   primalFeasible="0"
   dualFeasible="0"
   writeLevel="3"/>
 <quality
   epInt="1.0000000000000001e-05"
   epRHS="9.9999999999999995e-07"
   maxIntInfeas="0"
   maxPrimalInfeas="0"
   maxX="632"
   maxSlack="532"/>
 <variables>
  <variable index="38" value="1"/>
  <variable index="196" value="1"/>
  <variable index="295" value="1"/>
  <variable index="393" value="1"/>
  <variable index="445" value="1"/>
  <variable index="510" value="1"/>
  <variable index="629" value="1"/>
  <variable index="783" value="1"/>
  <variable index="826" value="1"/>
  <variable index="920" value="1"/>
  <variable index="1079" value="1"/>
  <variable index="1112" value="1"/>
  <variable index="1300" value="1"/>
  <variable index="1332" value="1"/>
  <variable index="1458" value="1"/>
  <variable index="1588" value="1"/>
  <variable index="1676" value="1"/>
  <variable index="1718" value="1"/>
  <variable index="1866" value="1"/>
  <variable index="1921" value="1"/>
  <variable index="2055" value="1"/>
  <variable index="2175" value="1"/>
  <variable index="2303" value="1"/>
  <variable index="2405" value="1"/>
  <variable index="2463" value="1"/>
  <variable index="2601" value="1"/>
  <variable index="2652" value="1"/>
  <variable index="2787" value="1"/>
  <variable index="2897" value="1"/>
  <variable index="2919" value="1"/>
  <variable index="3060" value="1"/>
  <variable index="3151" value="1"/>
  <variable index="3235" value="1"/>
  <variable index="3365" value="1"/>
  <variable index="3449" value="1"/>
  <variable index="3528" value="1"/>
  <variable index="3642" value="1"/>
  <variable index="3777" value="1"/>
  <variable index="3886" value="1"/>
  <variable index="3971" value="1"/>
  <variable index="4067" value="1"/>
  <variable index="4181" value="1"/>
  <variable index="4307" value="1"/>
  <variable index="4325" value="1"/>
  <variable index="4437" value="1"/>
  <variable index="4534" value="1"/>
  <variable index="4641" value="1"/>
  <variable index="4808" value="1"/>
  <variable index="4833" value="1"/>
  <variable index="4931" value="1"/>
  <variable index="5040" value="1"/>
  <variable index="5199" value="1"/>
  <variable index="5284" value="1"/>
  <variable index="5373" value="1"/>
  <variable index="5459" value="1"/>
  <variable index="5574" value="1"/>
  <variable index="5680" value="1"/>
  <variable index="5717" value="1"/>
  <variable index="5892" value="1"/>
  <variable index="5944" value="1"/>
  <variable index="6091" value="1"/>
  <variable index="6185" value="1"/>
  <variable index="6256" value="1"/>
  <variable index="6389" value="1"/>
  <variable index="6423" value="1"/>
  <variable index="6561" value="1"/>
  <variable index="6611" value="1"/>
  <variable index="6753" value="1"/>
  <variable index="6813" value="1"/>
  <variable index="6943" value="1"/>
  <variable index="7082" value="1"/>
  <variable index="7198" value="1"/>
  <variable index="7262" value="1"/>
  <variable index="7322" value="1"/>
  <variable index="7468" value="1"/>
  <variable index="7515" value="1"/>
  <variable index="7669" value="1"/>
  <variable index="7727" value="1"/>
  <variable index="7847" value="1"/>
  <variable index="7950" value="1"/>
  <variable index="8054" value="1"/>
  <variable index="8178" value="1"/>
  <variable index="8290" value="1"/>
  <variable index="8346" value="1"/>
  <variable index="8424" value="1"/>
  <variable index="8609" value="1"/>
  <variable index="8616" value="1"/>
  <variable index="8772" value="1"/>
  <variable index="8906" value="1"/>
  <variable index="8939" value="1"/>
  <variable index="9070" value="1"/>
  <variable index="9194" value="1"/>
  <variable index="9214" value="1"/>
  <variable index="9404" value="1"/>
  <variable index="9457" value="1"/>
  <variable index="9564" value="1"/>
  <variable index="9630" value="1"/>
  <variable index="9802" value="1"/>
  <variable index="9848" value="1"/>
  <variable index="9936" value="1"/>
  <variable index="10020" value="632"/>
 </variables>
</CPLEXSolution>
